33D32945 STP File, STP Format Version 1.0

SECTION Comments
Name "edge_n13_d4_s9"
Problem "Euclidean Steiner Tree Problem"
Remark "Generated with STPGenerator. 4 dimensions."
END

SECTION Graph
Nodes 13
END

SECTION Coordinates
DDDD 0 0.2069654480 0.2069654480 0.2069654480 0.2069654480
DDDD 1 0.6995153961 0.6995153961 0.6995153961 0.6995153961
DDDD 2 0.2034307295 0.2034307295 0.2034307295 0.2034307295
DDDD 3 0.3588790108 0.3588790108 0.3588790108 0.3588790108
DDDD 4 0.8845313130 0.8845313130 0.8845313130 0.8845313130
DDDD 5 0.4632373589 0.4632373589 0.4632373589 0.4632373589
DDDD 6 0.7227528005 0.7227528005 0.7227528005 0.7227528005
DDDD 7 0.6292115332 0.6292115332 0.6292115332 0.6292115332
DDDD 8 0.7207948913 0.7207948913 0.7207948913 0.7207948913
DDDD 9 0.7304651908 0.7304651908 0.7304651908 0.7304651908
DDDD 10 0.0540748500 0.0540748500 0.0540748500 0.0540748500
DDDD 11 0.9231773037 0.9231773037 0.9231773037 0.9231773037
DDDD 12 0.0740991244 0.0740991244 0.0740991244 0.0740991244
END
